
******************************************************************************
This program contains Ipopt, a library for large-scale nonlinear optimization.
 Ipopt is released as open source code under the Eclipse Public License (EPL).
         For more information visit http://projects.coin-or.org/Ipopt
******************************************************************************

This is Ipopt version 3.13.2, running with linear solver mumps.
NOTE: Other linear solvers might be more efficient (see Ipopt documentation).

Number of nonzeros in equality constraint Jacobian...:      238
Number of nonzeros in inequality constraint Jacobian.:      585
Number of nonzeros in Lagrangian Hessian.............:       81

Total number of variables............................:      132
                     variables with only lower bounds:        0
                variables with lower and upper bounds:      123
                     variables with only upper bounds:        0
Total number of equality constraints.................:       73
Total number of inequality constraints...............:      225
        inequality constraints with only lower bounds:      108
   inequality constraints with lower and upper bounds:        0
        inequality constraints with only upper bounds:      117

iter    objective    inf_pr   inf_du lg(mu)  ||d||  lg(rg) alpha_du alpha_pr  ls
   0  8.2499992e+01 1.00e+00 8.84e+00  -1.0 0.00e+00    -  0.00e+00 0.00e+00   0
   1  1.5454246e+02 8.55e-01 2.02e+01  -1.0 1.21e+00    -  9.83e-03 1.45e-01h  1
   2  1.4573304e+02 8.17e-01 1.93e+01  -1.0 3.17e+00    -  4.06e-02 4.40e-02f  1
   3  1.7329564e+02 7.10e-01 1.67e+01  -1.0 2.29e+00    -  5.67e-02 1.32e-01H  1
   4  1.8764262e+02 6.30e-01 1.49e+01  -1.0 2.62e+00    -  2.43e-01 1.12e-01h  1
   5  2.0911714e+02 5.10e-01 1.20e+01  -1.0 3.60e+00    -  2.61e-01 1.90e-01h  1
   6  3.5768805e+02 1.60e-13 2.09e+01  -1.0 3.34e+00    -  4.31e-01 1.00e+00H  1
   7  3.5127297e+02 1.14e-13 1.88e+01  -1.0 1.25e+00    -  6.20e-01 3.51e-01f  1
   8  3.5349507e+02 1.14e-13 1.62e+01  -1.0 1.61e+00    -  3.18e-01 1.00e+00f  1
   9  3.5445647e+02 1.14e-13 2.43e+01  -1.0 3.34e+00    -  5.03e-01 1.00e+00f  1
iter    objective    inf_pr   inf_du lg(mu)  ||d||  lg(rg) alpha_du alpha_pr  ls
  10  3.5493340e+02 4.92e-14 2.03e+01  -1.0 6.42e+00    -  6.74e-01 1.00e+00f  1
  11  3.5484034e+02 6.50e-14 3.05e-01  -1.0 9.95e+00    -  1.00e+00 1.00e+00f  1
  12  3.4988982e+02 2.27e-13 1.13e+01  -1.7 2.08e+00    -  7.39e-01 9.21e-01f  1
  13  3.4982912e+02 1.14e-13 6.20e-02  -1.7 1.90e+00    -  1.00e+00 1.00e+00h  1
  14  3.4889856e+02 9.77e-04 1.48e+00  -2.5 3.80e+00    -  9.38e-01 8.73e-01f  1
  15  3.4832535e+02 1.44e-03 8.62e-02  -2.5 6.90e+00    -  1.00e+00 1.00e+00h  1
  16  3.4825784e+02 1.14e-13 2.33e-03  -2.5 1.33e+00    -  1.00e+00 1.00e+00h  1
  17  3.4771865e+02 6.03e-02 7.05e-01  -3.8 5.53e+00    -  7.68e-01 9.94e-01h  1
  18  3.4754920e+02 3.39e-03 1.21e-01  -3.8 5.74e+00    -  8.29e-01 7.25e-01h  1
  19  3.4750394e+02 9.91e-04 1.55e-01  -3.8 2.87e+00    -  1.00e+00 7.83e-01h  1
iter    objective    inf_pr   inf_du lg(mu)  ||d||  lg(rg) alpha_du alpha_pr  ls
  20  3.4751215e+02 1.14e-13 9.96e-02  -3.8 3.39e-01    -  9.52e-01 1.00e+00h  1
  21  3.4750950e+02 8.54e-14 3.44e-05  -3.8 2.77e-01    -  1.00e+00 1.00e+00h  1
  22  3.4749195e+02 2.27e-13 2.89e-01  -5.7 1.21e+00    -  7.27e-01 5.59e-01h  1
  23  3.4748522e+02 1.24e-04 1.04e-01  -5.7 8.88e-01    -  6.74e-01 8.46e-01h  1
  24  3.4748422e+02 2.62e-05 2.85e-02  -5.7 3.51e-01    -  1.00e+00 9.37e-01h  1
  25  3.4748434e+02 1.14e-13 4.32e-06  -5.7 4.48e-02    -  1.00e+00 1.00e+00h  1
  26  3.4748417e+02 2.79e-06 2.10e-03  -8.6 3.26e-02    -  8.97e-01 7.45e-01h  1
  27  3.4748413e+02 2.27e-13 4.21e-02  -8.6 8.39e-03    -  1.00e+00 8.37e-01h  1
  28  3.4748412e+02 1.14e-13 1.83e-01  -8.6 7.72e-03    -  1.00e+00 6.72e-01f  1
  29  3.4748412e+02 1.14e-13 2.73e-07  -8.6 1.82e-03    -  1.00e+00 1.00e+00f  1
iter    objective    inf_pr   inf_du lg(mu)  ||d||  lg(rg) alpha_du alpha_pr  ls
  30  3.4748412e+02 8.57e-14 2.49e-08  -8.6 5.21e-04    -  1.00e+00 1.00e+00h  1
  31  3.4748412e+02 1.14e-13 3.30e-09  -8.6 3.77e-05    -  1.00e+00 1.00e+00h  1

Number of Iterations....: 31

                                   (scaled)                 (unscaled)
Objective...............:   8.4752224712748642e+01    3.4748412132226940e+02
Dual infeasibility......:   3.3037921703948925e-09    1.3545547898619058e-08
Constraint violation....:   2.4695503649842245e-14    1.1368683772161603e-13
Complementarity.........:   3.4976136448913654e-09    1.4340215944054596e-08
Overall NLP error.......:   3.4976136448913654e-09    1.4340215944054596e-08


Number of objective function evaluations             = 34
Number of objective gradient evaluations             = 32
Number of equality constraint evaluations            = 34
Number of inequality constraint evaluations          = 34
Number of equality constraint Jacobian evaluations   = 32
Number of inequality constraint Jacobian evaluations = 32
Number of Lagrangian Hessian evaluations             = 31
Total CPU secs in IPOPT (w/o function evaluations)   =      0.311
Total CPU secs in NLP function evaluations           =      0.210

EXIT: Optimal Solution Found.
cases/matpower/case9.m
ipopt
QCRM
Time to Solution........:1.2938621044158936
